% DatosEnergia.dzn

np = 3;            % número de plantas: nuclear, hidroeléctrica, térmica
nc = 2;            % número de clientes
nd = 3;            % número de días

nombrePlanta = ["Nuclear", "Hidroelectrica", "Termica"];  % nombres de las plantas
nombreCliente = ["ClienteA", "ClienteB"];                 % nombres de los clientes

% Costo de producción por MW de cada planta
costo = [40.0, 25.0, 50.0];

% Capacidad máxima (MW) de cada planta por día
cap = [1000, 300, 500];

% Pago por MW de cada cliente
pago = [100.0, 120.0];

% Demanda de cada cliente vs. día (clientes en filas, días en columnas)
dem = array2d(1..nc, 1..nd, [
   80, 110,  90,   % ClienteA, días 1..3
   150,  98, 340   % ClienteB, días 1..3
]);

% Porcentaje mínimo a cubrir de la demanda (0.0 - 1.0)
G = 0.50;

% Umbral para régimen alto por planta (0.0 - 1.0)
umbralAlto = [0.8, 0.8, 0.8];

% Máx. días consecutivos permitidos en régimen alto por planta
maxDiasAlto = [1, 1, 1];
